20
0 608.00 277.00
1 679.00 188.00
2 259.00 475.00
3 693.00 149.00
4 482.00 384.00
5 436.00 260.00
6 223.00 535.00
7 653.00 272.00
8 256.00 901.00
9 533.00 104.00
10 121.00 988.00
11 454.00 338.00
12 226.00 206.00
13 262.00 112.00
14 760.00 402.00
15 932.00 580.00
16 412.00 755.00
17 766.00 732.00
18 205.00 722.00
19 549.00 414.00
